words_hard_train/1718.qaiger
aag 114 15 0 1 99
2
4
10
12
42
44
74
76
88
90
102
104
116
118
130
228
6 2 4
8 7 4
14 11 13
16 10 12
18 15 17
20 7 19
22 6 18
24 21 23
26 25 13
28 24 12
30 27 29
32 9 31
34 8 30
36 33 35
38 35 29
40 23 17
46 43 45
48 42 44
50 47 49
52 40 51
54 41 50
56 53 55
58 57 45
60 56 44
62 59 61
64 38 63
66 39 62
68 65 67
70 37 69
72 55 49
78 75 77
80 74 76
82 79 81
84 73 82
86 85 81
92 89 91
94 88 90
96 93 95
98 87 96
100 99 95
106 103 105
108 102 104
110 107 109
112 101 110
114 113 109
120 116 118
122 117 119
124 121 123
126 115 124
128 127 121
132 129 130
134 128 131
136 133 135
138 67 61
140 72 83
142 141 85
144 143 77
146 142 76
148 145 147
150 139 148
152 151 147
154 86 97
156 155 99
158 157 91
160 156 90
162 159 161
164 153 162
166 165 161
168 100 111
170 169 113
172 171 105
174 170 104
176 173 175
178 167 176
180 179 175
182 114 125
184 127 183
186 185 119
188 184 118
190 187 189
192 181 190
194 193 189
196 136 195
198 70 197
200 138 149
202 201 151
204 203 3
206 152 163
208 207 165
210 204 209
212 166 177
214 213 179
216 210 215
218 180 191
220 219 193
222 216 221
224 137 194
226 222 225
228 198 226
i0 2 y2[0]
i1 1 x1[0]
i2 2 y2[1]
i3 1 x1[1]
i4 2 y2[2]
i5 1 x1[2]
i6 2 y2[3]
i7 1 x1[3]
i8 2 y2[4]
i9 1 x1[4]
i10 2 y2[5]
i11 1 x1[5]
i12 2 y2[6]
i13 1 x1[6]
i14 2 y2[7]
o0 bool[0]
c
simplified
  ==
    add
      add
        2 y2
        1 x1
      1 x1
    reverse
      1
