words_hard_train/1718.qaiger.qdimacs
p cnf 114 298
a 2 38 6 45 52 22 59 0
e 1 3 4 5 7 8 9 10 11 12 13 14 15 16 17 18 19 20 21 23 24 25 26 27 28 29 30 31 32 33 34 35 36 37 39 40 41 42 43 44 46 47 48 49 50 51 53 54 55 56 57 58 60 61 62 63 64 65 66 67 68 69 70 71 72 73 74 75 76 77 78 79 80 81 82 83 84 85 86 87 88 89 90 91 92 93 94 95 96 97 98 99 100 101 102 103 104 105 106 107 108 109 110 111 112 113 114 0
-1 -2 3 0
1 -3 0
2 -3 0
3 -2 4 0
-3 -4 0
2 -4 0
5 6 7 0
-5 -7 0
-6 -7 0
-5 -6 8 0
5 -8 0
6 -8 0
7 8 9 0
-7 -9 0
-8 -9 0
3 9 10 0
-3 -10 0
-9 -10 0
-3 -9 11 0
3 -11 0
9 -11 0
10 11 12 0
-10 -12 0
-11 -12 0
12 6 13 0
-12 -13 0
-6 -13 0
-12 -6 14 0
12 -14 0
6 -14 0
13 14 15 0
-13 -15 0
-14 -15 0
4 15 16 0
-4 -16 0
-15 -16 0
-4 -15 17 0
4 -17 0
15 -17 0
16 17 18 0
-16 -18 0
-17 -18 0
17 14 19 0
-17 -19 0
-14 -19 0
11 8 20 0
-11 -20 0
-8 -20 0
21 22 23 0
-21 -23 0
-22 -23 0
-21 -22 24 0
21 -24 0
22 -24 0
23 24 25 0
-23 -25 0
-24 -25 0
-20 25 26 0
20 -26 0
-25 -26 0
20 -25 27 0
-20 -27 0
25 -27 0
26 27 28 0
-26 -28 0
-27 -28 0
28 22 29 0
-28 -29 0
-22 -29 0
-28 -22 30 0
28 -30 0
22 -30 0
29 30 31 0
-29 -31 0
-30 -31 0
-19 31 32 0
19 -32 0
-31 -32 0
19 -31 33 0
-19 -33 0
31 -33 0
32 33 34 0
-32 -34 0
-33 -34 0
18 34 35 0
-18 -35 0
-34 -35 0
27 24 36 0
-27 -36 0
-24 -36 0
37 38 39 0
-37 -39 0
-38 -39 0
-37 -38 40 0
37 -40 0
38 -40 0
39 40 41 0
-39 -41 0
-40 -41 0
36 -41 42 0
-36 -42 0
41 -42 0
42 40 43 0
-42 -43 0
-40 -43 0
44 45 46 0
-44 -46 0
-45 -46 0
-44 -45 47 0
44 -47 0
45 -47 0
46 47 48 0
-46 -48 0
-47 -48 0
43 -48 49 0
-43 -49 0
48 -49 0
49 47 50 0
-49 -50 0
-47 -50 0
51 52 53 0
-51 -53 0
-52 -53 0
-51 -52 54 0
51 -54 0
52 -54 0
53 54 55 0
-53 -55 0
-54 -55 0
50 -55 56 0
-50 -56 0
55 -56 0
56 54 57 0
-56 -57 0
-54 -57 0
-58 -59 60 0
58 -60 0
59 -60 0
58 59 61 0
-58 -61 0
-59 -61 0
60 61 62 0
-60 -62 0
-61 -62 0
57 -62 63 0
-57 -63 0
62 -63 0
63 60 64 0
-63 -64 0
-60 -64 0
64 -65 66 0
-64 -66 0
65 -66 0
-64 65 67 0
64 -67 0
-65 -67 0
66 67 68 0
-66 -68 0
-67 -68 0
33 30 69 0
-33 -69 0
-30 -69 0
-36 41 70 0
36 -70 0
-41 -70 0
70 42 71 0
-70 -71 0
-42 -71 0
71 38 72 0
-71 -72 0
-38 -72 0
-71 -38 73 0
71 -73 0
38 -73 0
72 73 74 0
-72 -74 0
-73 -74 0
69 -74 75 0
-69 -75 0
74 -75 0
75 73 76 0
-75 -76 0
-73 -76 0
-43 48 77 0
43 -77 0
-48 -77 0
77 49 78 0
-77 -78 0
-49 -78 0
78 45 79 0
-78 -79 0
-45 -79 0
-78 -45 80 0
78 -80 0
45 -80 0
79 80 81 0
-79 -81 0
-80 -81 0
76 -81 82 0
-76 -82 0
81 -82 0
82 80 83 0
-82 -83 0
-80 -83 0
-50 55 84 0
50 -84 0
-55 -84 0
84 56 85 0
-84 -85 0
-56 -85 0
85 52 86 0
-85 -86 0
-52 -86 0
-85 -52 87 0
85 -87 0
52 -87 0
86 87 88 0
-86 -88 0
-87 -88 0
83 -88 89 0
-83 -89 0
88 -89 0
89 87 90 0
-89 -90 0
-87 -90 0
-57 62 91 0
57 -91 0
-62 -91 0
63 91 92 0
-63 -92 0
-91 -92 0
92 59 93 0
-92 -93 0
-59 -93 0
-92 -59 94 0
92 -94 0
59 -94 0
93 94 95 0
-93 -95 0
-94 -95 0
90 -95 96 0
-90 -96 0
95 -96 0
96 94 97 0
-96 -97 0
-94 -97 0
-68 97 98 0
68 -98 0
-97 -98 0
-35 98 99 0
35 -99 0
-98 -99 0
-69 74 100 0
69 -100 0
-74 -100 0
100 75 101 0
-100 -101 0
-75 -101 0
101 1 102 0
-101 -102 0
-1 -102 0
-76 81 103 0
76 -103 0
-81 -103 0
103 82 104 0
-103 -104 0
-82 -104 0
-102 104 105 0
102 -105 0
-104 -105 0
-83 88 106 0
83 -106 0
-88 -106 0
106 89 107 0
-106 -107 0
-89 -107 0
-105 107 108 0
105 -108 0
-107 -108 0
-90 95 109 0
90 -109 0
-95 -109 0
109 96 110 0
-109 -110 0
-96 -110 0
-108 110 111 0
108 -111 0
-110 -111 0
68 -97 112 0
-68 -112 0
97 -112 0
-111 112 113 0
111 -113 0
-112 -113 0
-99 -113 114 0
99 -114 0
113 -114 0
114 0
